ENCUT = 500 
ISMEAR =  0
SIGMA  =  0.001
EDIFF  = 1E-8

NBANDS = 72

LSORBIT = T
MAGMOM = 9*0 

LMAXMIX = 4
LASPH = T
GGA_COMPAT = F