ENCUT = 500 
ISMEAR =  0
SIGMA  =  0.001
EDIFF  = 1E-8

NBANDS = 72
LOPTICS = T
LVEL = T

LSORBIT = T
MAGMOM = 9*0 

ICHARG = 11

