automatically kmesh 
      1174
Reciprocal lattice 
    0.00000000000000    0.00000000000000    0.00000000000000    1.00000000000000
    0.04166666666667    0.00000000000000    0.00000000000000    6.00000000000000
    0.08333333333333    0.00000000000000    0.00000000000000    6.00000000000000
    0.12500000000000    0.00000000000000    0.00000000000000    6.00000000000000
    0.16666666666667    0.00000000000000    0.00000000000000    6.00000000000000
    0.20833333333333    0.00000000000000    0.00000000000000    6.00000000000000
    0.25000000000000    0.00000000000000    0.00000000000000    6.00000000000000
    0.29166666666667    0.00000000000000    0.00000000000000    6.00000000000000
    0.33333333333333    0.00000000000000    0.00000000000000    6.00000000000000
    0.37500000000000    0.00000000000000    0.00000000000000    6.00000000000000
    0.41666666666667    0.00000000000000    0.00000000000000    6.00000000000000
    0.45833333333333    0.00000000000000    0.00000000000000    6.00000000000000
    0.50000000000000    0.00000000000000    0.00000000000000    3.00000000000000
    0.04166666666667    0.04166666666667    0.00000000000000    6.00000000000000
    0.08333333333333    0.04166666666667    0.00000000000000   12.00000000000000
    0.12500000000000    0.04166666666667    0.00000000000000   12.00000000000000
    0.16666666666667    0.04166666666667    0.00000000000000   12.00000000000000
    0.20833333333333    0.04166666666667    0.00000000000000   12.00000000000000
    0.25000000000000    0.04166666666667    0.00000000000000   12.00000000000000
    0.29166666666667    0.04166666666667    0.00000000000000   12.00000000000000
    0.33333333333333    0.04166666666667    0.00000000000000   12.00000000000000
    0.37500000000000    0.04166666666667    0.00000000000000   12.00000000000000
    0.41666666666667    0.04166666666667    0.00000000000000   12.00000000000000
    0.45833333333333    0.04166666666667    0.00000000000000   12.00000000000000
    0.08333333333333    0.08333333333333    0.00000000000000    6.00000000000000
    0.12500000000000    0.08333333333333    0.00000000000000   12.00000000000000
    0.16666666666667    0.08333333333333    0.00000000000000   12.00000000000000
    0.20833333333333    0.08333333333333    0.00000000000000   12.00000000000000
    0.25000000000000    0.08333333333333    0.00000000000000   12.00000000000000
    0.29166666666667    0.08333333333333    0.00000000000000   12.00000000000000
    0.33333333333333    0.08333333333333    0.00000000000000   12.00000000000000
    0.37500000000000    0.08333333333333    0.00000000000000   12.00000000000000
    0.41666666666667    0.08333333333333    0.00000000000000   12.00000000000000
    0.45833333333333    0.08333333333333    0.00000000000000    6.00000000000000
    0.12500000000000    0.12500000000000    0.00000000000000    6.00000000000000
    0.16666666666667    0.12500000000000    0.00000000000000   12.00000000000000
    0.20833333333333    0.12500000000000    0.00000000000000   12.00000000000000
    0.25000000000000    0.12500000000000    0.00000000000000   12.00000000000000
    0.29166666666667    0.12500000000000    0.00000000000000   12.00000000000000
    0.33333333333333    0.12500000000000    0.00000000000000   12.00000000000000
    0.37500000000000    0.12500000000000    0.00000000000000   12.00000000000000
    0.41666666666667    0.12500000000000    0.00000000000000   12.00000000000000
    0.16666666666667    0.16666666666667    0.00000000000000    6.00000000000000
    0.20833333333333    0.16666666666667    0.00000000000000   12.00000000000000
    0.25000000000000    0.16666666666667    0.00000000000000   12.00000000000000
    0.29166666666667    0.16666666666667    0.00000000000000   12.00000000000000
    0.33333333333333    0.16666666666667    0.00000000000000   12.00000000000000
    0.37500000000000    0.16666666666667    0.00000000000000   12.00000000000000
    0.41666666666667    0.16666666666667    0.00000000000000    6.00000000000000
    0.20833333333333    0.20833333333333    0.00000000000000    6.00000000000000
    0.25000000000000    0.20833333333333    0.00000000000000   12.00000000000000
    0.29166666666667    0.20833333333333    0.00000000000000   12.00000000000000
    0.33333333333333    0.20833333333333    0.00000000000000   12.00000000000000
    0.37500000000000    0.20833333333333    0.00000000000000   12.00000000000000
    0.25000000000000    0.25000000000000    0.00000000000000    6.00000000000000
    0.29166666666667    0.25000000000000    0.00000000000000   12.00000000000000
    0.33333333333333    0.25000000000000    0.00000000000000   12.00000000000000
    0.37500000000000    0.25000000000000    0.00000000000000    6.00000000000000
    0.29166666666667    0.29166666666667    0.00000000000000    6.00000000000000
    0.33333333333333    0.29166666666667    0.00000000000000   12.00000000000000
    0.33333333333333    0.33333333333333    0.00000000000000    2.00000000000000
    0.00000000000000    0.00000000000000    0.05555555555556    2.00000000000000
    0.04166666666667    0.00000000000000    0.05555555555556    6.00000000000000
    0.08333333333333    0.00000000000000    0.05555555555556    6.00000000000000
    0.12500000000000    0.00000000000000    0.05555555555556    6.00000000000000
    0.16666666666667    0.00000000000000    0.05555555555556    6.00000000000000
    0.20833333333333    0.00000000000000    0.05555555555556    6.00000000000000
    0.25000000000000    0.00000000000000    0.05555555555556    6.00000000000000
    0.29166666666667    0.00000000000000    0.05555555555556    6.00000000000000
    0.33333333333333    0.00000000000000    0.05555555555556    6.00000000000000
    0.37500000000000    0.00000000000000    0.05555555555556    6.00000000000000
    0.41666666666667    0.00000000000000    0.05555555555556    6.00000000000000
    0.45833333333333    0.00000000000000    0.05555555555556    6.00000000000000
    0.50000000000000    0.00000000000000    0.05555555555556    6.00000000000000
   -0.45833333333333    0.00000000000000    0.05555555555556    6.00000000000000
   -0.41666666666667    0.00000000000000    0.05555555555556    6.00000000000000
   -0.37500000000000    0.00000000000000    0.05555555555556    6.00000000000000
   -0.33333333333333    0.00000000000000    0.05555555555556    6.00000000000000
   -0.29166666666667    0.00000000000000    0.05555555555556    6.00000000000000
   -0.25000000000000    0.00000000000000    0.05555555555556    6.00000000000000
   -0.20833333333333    0.00000000000000    0.05555555555556    6.00000000000000
   -0.16666666666667    0.00000000000000    0.05555555555556    6.00000000000000
   -0.12500000000000    0.00000000000000    0.05555555555556    6.00000000000000
   -0.08333333333333    0.00000000000000    0.05555555555556    6.00000000000000
   -0.04166666666667    0.00000000000000    0.05555555555556    6.00000000000000
    0.04166666666667    0.04166666666667    0.05555555555556   12.00000000000000
    0.08333333333333    0.04166666666667    0.05555555555556   12.00000000000000
    0.12500000000000    0.04166666666667    0.05555555555556   12.00000000000000
    0.16666666666667    0.04166666666667    0.05555555555556   12.00000000000000
    0.20833333333333    0.04166666666667    0.05555555555556   12.00000000000000
    0.25000000000000    0.04166666666667    0.05555555555556   12.00000000000000
    0.29166666666667    0.04166666666667    0.05555555555556   12.00000000000000
    0.33333333333333    0.04166666666667    0.05555555555556   12.00000000000000
    0.37500000000000    0.04166666666667    0.05555555555556   12.00000000000000
    0.41666666666667    0.04166666666667    0.05555555555556   12.00000000000000
    0.45833333333333    0.04166666666667    0.05555555555556   12.00000000000000
    0.50000000000000    0.04166666666667    0.05555555555556   12.00000000000000
   -0.45833333333333    0.04166666666667    0.05555555555556   12.00000000000000
   -0.41666666666667    0.04166666666667    0.05555555555556   12.00000000000000
   -0.37500000000000    0.04166666666667    0.05555555555556   12.00000000000000
   -0.33333333333333    0.04166666666667    0.05555555555556   12.00000000000000
   -0.29166666666667    0.04166666666667    0.05555555555556   12.00000000000000
   -0.25000000000000    0.04166666666667    0.05555555555556   12.00000000000000
   -0.20833333333333    0.04166666666667    0.05555555555556   12.00000000000000
   -0.16666666666667    0.04166666666667    0.05555555555556   12.00000000000000
   -0.12500000000000    0.04166666666667    0.05555555555556   12.00000000000000
    0.08333333333333    0.08333333333333    0.05555555555556   12.00000000000000
    0.12500000000000    0.08333333333333    0.05555555555556   12.00000000000000
    0.16666666666667    0.08333333333333    0.05555555555556   12.00000000000000
    0.20833333333333    0.08333333333333    0.05555555555556   12.00000000000000
    0.25000000000000    0.08333333333333    0.05555555555556   12.00000000000000
    0.29166666666667    0.08333333333333    0.05555555555556   12.00000000000000
    0.33333333333333    0.08333333333333    0.05555555555556   12.00000000000000
    0.37500000000000    0.08333333333333    0.05555555555556   12.00000000000000
    0.41666666666667    0.08333333333333    0.05555555555556   12.00000000000000
    0.45833333333333    0.08333333333333    0.05555555555556   12.00000000000000
    0.50000000000000    0.08333333333333    0.05555555555556   12.00000000000000
   -0.45833333333333    0.08333333333333    0.05555555555556   12.00000000000000
   -0.41666666666667    0.08333333333333    0.05555555555556   12.00000000000000
   -0.37500000000000    0.08333333333333    0.05555555555556   12.00000000000000
   -0.33333333333333    0.08333333333333    0.05555555555556   12.00000000000000
   -0.29166666666667    0.08333333333333    0.05555555555556   12.00000000000000
   -0.25000000000000    0.08333333333333    0.05555555555556   12.00000000000000
   -0.20833333333333    0.08333333333333    0.05555555555556   12.00000000000000
    0.12500000000000    0.12500000000000    0.05555555555556   12.00000000000000
    0.16666666666667    0.12500000000000    0.05555555555556   12.00000000000000
    0.20833333333333    0.12500000000000    0.05555555555556   12.00000000000000
    0.25000000000000    0.12500000000000    0.05555555555556   12.00000000000000
    0.29166666666667    0.12500000000000    0.05555555555556   12.00000000000000
    0.33333333333333    0.12500000000000    0.05555555555556   12.00000000000000
    0.37500000000000    0.12500000000000    0.05555555555556   12.00000000000000
    0.41666666666667    0.12500000000000    0.05555555555556   12.00000000000000
    0.45833333333333    0.12500000000000    0.05555555555556   12.00000000000000
    0.50000000000000    0.12500000000000    0.05555555555556   12.00000000000000
   -0.45833333333333    0.12500000000000    0.05555555555556   12.00000000000000
   -0.41666666666667    0.12500000000000    0.05555555555556   12.00000000000000
   -0.37500000000000    0.12500000000000    0.05555555555556   12.00000000000000
   -0.33333333333333    0.12500000000000    0.05555555555556   12.00000000000000
   -0.29166666666667    0.12500000000000    0.05555555555556   12.00000000000000
    0.16666666666667    0.16666666666667    0.05555555555556   12.00000000000000
    0.20833333333333    0.16666666666667    0.05555555555556   12.00000000000000
    0.25000000000000    0.16666666666667    0.05555555555556   12.00000000000000
    0.29166666666667    0.16666666666667    0.05555555555556   12.00000000000000
    0.33333333333333    0.16666666666667    0.05555555555556   12.00000000000000
    0.37500000000000    0.16666666666667    0.05555555555556   12.00000000000000
    0.41666666666667    0.16666666666667    0.05555555555556   12.00000000000000
    0.45833333333333    0.16666666666667    0.05555555555556   12.00000000000000
    0.50000000000000    0.16666666666667    0.05555555555556   12.00000000000000
   -0.45833333333333    0.16666666666667    0.05555555555556   12.00000000000000
   -0.41666666666667    0.16666666666667    0.05555555555556   12.00000000000000
   -0.37500000000000    0.16666666666667    0.05555555555556   12.00000000000000
    0.20833333333333    0.20833333333333    0.05555555555556   12.00000000000000
    0.25000000000000    0.20833333333333    0.05555555555556   12.00000000000000
    0.29166666666667    0.20833333333333    0.05555555555556   12.00000000000000
    0.33333333333333    0.20833333333333    0.05555555555556   12.00000000000000
    0.37500000000000    0.20833333333333    0.05555555555556   12.00000000000000
    0.41666666666667    0.20833333333333    0.05555555555556   12.00000000000000
    0.45833333333333    0.20833333333333    0.05555555555556   12.00000000000000
    0.50000000000000    0.20833333333333    0.05555555555556   12.00000000000000
   -0.45833333333333    0.20833333333333    0.05555555555556   12.00000000000000
    0.25000000000000    0.25000000000000    0.05555555555556   12.00000000000000
    0.29166666666667    0.25000000000000    0.05555555555556   12.00000000000000
    0.33333333333333    0.25000000000000    0.05555555555556   12.00000000000000
    0.37500000000000    0.25000000000000    0.05555555555556   12.00000000000000
    0.41666666666667    0.25000000000000    0.05555555555556   12.00000000000000
    0.45833333333333    0.25000000000000    0.05555555555556   12.00000000000000
    0.29166666666667    0.29166666666667    0.05555555555556   12.00000000000000
    0.33333333333333    0.29166666666667    0.05555555555556   12.00000000000000
    0.37500000000000    0.29166666666667    0.05555555555556   12.00000000000000
    0.33333333333333    0.33333333333333    0.05555555555556    4.00000000000000
    0.00000000000000    0.00000000000000    0.11111111111111    2.00000000000000
    0.04166666666667    0.00000000000000    0.11111111111111    6.00000000000000
    0.08333333333333    0.00000000000000    0.11111111111111    6.00000000000000
    0.12500000000000    0.00000000000000    0.11111111111111    6.00000000000000
    0.16666666666667    0.00000000000000    0.11111111111111    6.00000000000000
    0.20833333333333    0.00000000000000    0.11111111111111    6.00000000000000
    0.25000000000000    0.00000000000000    0.11111111111111    6.00000000000000
    0.29166666666667    0.00000000000000    0.11111111111111    6.00000000000000
    0.33333333333333    0.00000000000000    0.11111111111111    6.00000000000000
    0.37500000000000    0.00000000000000    0.11111111111111    6.00000000000000
    0.41666666666667    0.00000000000000    0.11111111111111    6.00000000000000
    0.45833333333333    0.00000000000000    0.11111111111111    6.00000000000000
    0.50000000000000    0.00000000000000    0.11111111111111    6.00000000000000
   -0.45833333333333    0.00000000000000    0.11111111111111    6.00000000000000
   -0.41666666666667    0.00000000000000    0.11111111111111    6.00000000000000
   -0.37500000000000    0.00000000000000    0.11111111111111    6.00000000000000
   -0.33333333333333    0.00000000000000    0.11111111111111    6.00000000000000
   -0.29166666666667    0.00000000000000    0.11111111111111    6.00000000000000
   -0.25000000000000    0.00000000000000    0.11111111111111    6.00000000000000
   -0.20833333333333    0.00000000000000    0.11111111111111    6.00000000000000
   -0.16666666666667    0.00000000000000    0.11111111111111    6.00000000000000
   -0.12500000000000    0.00000000000000    0.11111111111111    6.00000000000000
   -0.08333333333333    0.00000000000000    0.11111111111111    6.00000000000000
   -0.04166666666667    0.00000000000000    0.11111111111111    6.00000000000000
    0.04166666666667    0.04166666666667    0.11111111111111   12.00000000000000
    0.08333333333333    0.04166666666667    0.11111111111111   12.00000000000000
    0.12500000000000    0.04166666666667    0.11111111111111   12.00000000000000
    0.16666666666667    0.04166666666667    0.11111111111111   12.00000000000000
    0.20833333333333    0.04166666666667    0.11111111111111   12.00000000000000
    0.25000000000000    0.04166666666667    0.11111111111111   12.00000000000000
    0.29166666666667    0.04166666666667    0.11111111111111   12.00000000000000
    0.33333333333333    0.04166666666667    0.11111111111111   12.00000000000000
    0.37500000000000    0.04166666666667    0.11111111111111   12.00000000000000
    0.41666666666667    0.04166666666667    0.11111111111111   12.00000000000000
    0.45833333333333    0.04166666666667    0.11111111111111   12.00000000000000
    0.50000000000000    0.04166666666667    0.11111111111111   12.00000000000000
   -0.45833333333333    0.04166666666667    0.11111111111111   12.00000000000000
   -0.41666666666667    0.04166666666667    0.11111111111111   12.00000000000000
   -0.37500000000000    0.04166666666667    0.11111111111111   12.00000000000000
   -0.33333333333333    0.04166666666667    0.11111111111111   12.00000000000000
   -0.29166666666667    0.04166666666667    0.11111111111111   12.00000000000000
   -0.25000000000000    0.04166666666667    0.11111111111111   12.00000000000000
   -0.20833333333333    0.04166666666667    0.11111111111111   12.00000000000000
   -0.16666666666667    0.04166666666667    0.11111111111111   12.00000000000000
   -0.12500000000000    0.04166666666667    0.11111111111111   12.00000000000000
    0.08333333333333    0.08333333333333    0.11111111111111   12.00000000000000
    0.12500000000000    0.08333333333333    0.11111111111111   12.00000000000000
    0.16666666666667    0.08333333333333    0.11111111111111   12.00000000000000
    0.20833333333333    0.08333333333333    0.11111111111111   12.00000000000000
    0.25000000000000    0.08333333333333    0.11111111111111   12.00000000000000
    0.29166666666667    0.08333333333333    0.11111111111111   12.00000000000000
    0.33333333333333    0.08333333333333    0.11111111111111   12.00000000000000
    0.37500000000000    0.08333333333333    0.11111111111111   12.00000000000000
    0.41666666666667    0.08333333333333    0.11111111111111   12.00000000000000
    0.45833333333333    0.08333333333333    0.11111111111111   12.00000000000000
    0.50000000000000    0.08333333333333    0.11111111111111   12.00000000000000
   -0.45833333333333    0.08333333333333    0.11111111111111   12.00000000000000
   -0.41666666666667    0.08333333333333    0.11111111111111   12.00000000000000
   -0.37500000000000    0.08333333333333    0.11111111111111   12.00000000000000
   -0.33333333333333    0.08333333333333    0.11111111111111   12.00000000000000
   -0.29166666666667    0.08333333333333    0.11111111111111   12.00000000000000
   -0.25000000000000    0.08333333333333    0.11111111111111   12.00000000000000
   -0.20833333333333    0.08333333333333    0.11111111111111   12.00000000000000
    0.12500000000000    0.12500000000000    0.11111111111111   12.00000000000000
    0.16666666666667    0.12500000000000    0.11111111111111   12.00000000000000
    0.20833333333333    0.12500000000000    0.11111111111111   12.00000000000000
    0.25000000000000    0.12500000000000    0.11111111111111   12.00000000000000
    0.29166666666667    0.12500000000000    0.11111111111111   12.00000000000000
    0.33333333333333    0.12500000000000    0.11111111111111   12.00000000000000
    0.37500000000000    0.12500000000000    0.11111111111111   12.00000000000000
    0.41666666666667    0.12500000000000    0.11111111111111   12.00000000000000
    0.45833333333333    0.12500000000000    0.11111111111111   12.00000000000000
    0.50000000000000    0.12500000000000    0.11111111111111   12.00000000000000
   -0.45833333333333    0.12500000000000    0.11111111111111   12.00000000000000
   -0.41666666666667    0.12500000000000    0.11111111111111   12.00000000000000
   -0.37500000000000    0.12500000000000    0.11111111111111   12.00000000000000
   -0.33333333333333    0.12500000000000    0.11111111111111   12.00000000000000
   -0.29166666666667    0.12500000000000    0.11111111111111   12.00000000000000
    0.16666666666667    0.16666666666667    0.11111111111111   12.00000000000000
    0.20833333333333    0.16666666666667    0.11111111111111   12.00000000000000
    0.25000000000000    0.16666666666667    0.11111111111111   12.00000000000000
    0.29166666666667    0.16666666666667    0.11111111111111   12.00000000000000
    0.33333333333333    0.16666666666667    0.11111111111111   12.00000000000000
    0.37500000000000    0.16666666666667    0.11111111111111   12.00000000000000
    0.41666666666667    0.16666666666667    0.11111111111111   12.00000000000000
    0.45833333333333    0.16666666666667    0.11111111111111   12.00000000000000
    0.50000000000000    0.16666666666667    0.11111111111111   12.00000000000000
   -0.45833333333333    0.16666666666667    0.11111111111111   12.00000000000000
   -0.41666666666667    0.16666666666667    0.11111111111111   12.00000000000000
   -0.37500000000000    0.16666666666667    0.11111111111111   12.00000000000000
    0.20833333333333    0.20833333333333    0.11111111111111   12.00000000000000
    0.25000000000000    0.20833333333333    0.11111111111111   12.00000000000000
    0.29166666666667    0.20833333333333    0.11111111111111   12.00000000000000
    0.33333333333333    0.20833333333333    0.11111111111111   12.00000000000000
    0.37500000000000    0.20833333333333    0.11111111111111   12.00000000000000
    0.41666666666667    0.20833333333333    0.11111111111111   12.00000000000000
    0.45833333333333    0.20833333333333    0.11111111111111   12.00000000000000
    0.50000000000000    0.20833333333333    0.11111111111111   12.00000000000000
   -0.45833333333333    0.20833333333333    0.11111111111111   12.00000000000000
    0.25000000000000    0.25000000000000    0.11111111111111   12.00000000000000
    0.29166666666667    0.25000000000000    0.11111111111111   12.00000000000000
    0.33333333333333    0.25000000000000    0.11111111111111   12.00000000000000
    0.37500000000000    0.25000000000000    0.11111111111111   12.00000000000000
    0.41666666666667    0.25000000000000    0.11111111111111   12.00000000000000
    0.45833333333333    0.25000000000000    0.11111111111111   12.00000000000000
    0.29166666666667    0.29166666666667    0.11111111111111   12.00000000000000
    0.33333333333333    0.29166666666667    0.11111111111111   12.00000000000000
    0.37500000000000    0.29166666666667    0.11111111111111   12.00000000000000
    0.33333333333333    0.33333333333333    0.11111111111111    4.00000000000000
    0.00000000000000    0.00000000000000    0.16666666666667    2.00000000000000
    0.04166666666667    0.00000000000000    0.16666666666667    6.00000000000000
    0.08333333333333    0.00000000000000    0.16666666666667    6.00000000000000
    0.12500000000000    0.00000000000000    0.16666666666667    6.00000000000000
    0.16666666666667    0.00000000000000    0.16666666666667    6.00000000000000
    0.20833333333333    0.00000000000000    0.16666666666667    6.00000000000000
    0.25000000000000    0.00000000000000    0.16666666666667    6.00000000000000
    0.29166666666667    0.00000000000000    0.16666666666667    6.00000000000000
    0.33333333333333    0.00000000000000    0.16666666666667    6.00000000000000
    0.37500000000000    0.00000000000000    0.16666666666667    6.00000000000000
    0.41666666666667    0.00000000000000    0.16666666666667    6.00000000000000
    0.45833333333333    0.00000000000000    0.16666666666667    6.00000000000000
    0.50000000000000    0.00000000000000    0.16666666666667    6.00000000000000
   -0.45833333333333    0.00000000000000    0.16666666666667    6.00000000000000
   -0.41666666666667    0.00000000000000    0.16666666666667    6.00000000000000
   -0.37500000000000    0.00000000000000    0.16666666666667    6.00000000000000
   -0.33333333333333    0.00000000000000    0.16666666666667    6.00000000000000
   -0.29166666666667    0.00000000000000    0.16666666666667    6.00000000000000
   -0.25000000000000    0.00000000000000    0.16666666666667    6.00000000000000
   -0.20833333333333    0.00000000000000    0.16666666666667    6.00000000000000
   -0.16666666666667    0.00000000000000    0.16666666666667    6.00000000000000
   -0.12500000000000    0.00000000000000    0.16666666666667    6.00000000000000
   -0.08333333333333    0.00000000000000    0.16666666666667    6.00000000000000
   -0.04166666666667    0.00000000000000    0.16666666666667    6.00000000000000
    0.04166666666667    0.04166666666667    0.16666666666667   12.00000000000000
    0.08333333333333    0.04166666666667    0.16666666666667   12.00000000000000
    0.12500000000000    0.04166666666667    0.16666666666667   12.00000000000000
    0.16666666666667    0.04166666666667    0.16666666666667   12.00000000000000
    0.20833333333333    0.04166666666667    0.16666666666667   12.00000000000000
    0.25000000000000    0.04166666666667    0.16666666666667   12.00000000000000
    0.29166666666667    0.04166666666667    0.16666666666667   12.00000000000000
    0.33333333333333    0.04166666666667    0.16666666666667   12.00000000000000
    0.37500000000000    0.04166666666667    0.16666666666667   12.00000000000000
    0.41666666666667    0.04166666666667    0.16666666666667   12.00000000000000
    0.45833333333333    0.04166666666667    0.16666666666667   12.00000000000000
    0.50000000000000    0.04166666666667    0.16666666666667   12.00000000000000
   -0.45833333333333    0.04166666666667    0.16666666666667   12.00000000000000
   -0.41666666666667    0.04166666666667    0.16666666666667   12.00000000000000
   -0.37500000000000    0.04166666666667    0.16666666666667   12.00000000000000
   -0.33333333333333    0.04166666666667    0.16666666666667   12.00000000000000
   -0.29166666666667    0.04166666666667    0.16666666666667   12.00000000000000
   -0.25000000000000    0.04166666666667    0.16666666666667   12.00000000000000
   -0.20833333333333    0.04166666666667    0.16666666666667   12.00000000000000
   -0.16666666666667    0.04166666666667    0.16666666666667   12.00000000000000
   -0.12500000000000    0.04166666666667    0.16666666666667   12.00000000000000
    0.08333333333333    0.08333333333333    0.16666666666667   12.00000000000000
    0.12500000000000    0.08333333333333    0.16666666666667   12.00000000000000
    0.16666666666667    0.08333333333333    0.16666666666667   12.00000000000000
    0.20833333333333    0.08333333333333    0.16666666666667   12.00000000000000
    0.25000000000000    0.08333333333333    0.16666666666667   12.00000000000000
    0.29166666666667    0.08333333333333    0.16666666666667   12.00000000000000
    0.33333333333333    0.08333333333333    0.16666666666667   12.00000000000000
    0.37500000000000    0.08333333333333    0.16666666666667   12.00000000000000
    0.41666666666667    0.08333333333333    0.16666666666667   12.00000000000000
    0.45833333333333    0.08333333333333    0.16666666666667   12.00000000000000
    0.50000000000000    0.08333333333333    0.16666666666667   12.00000000000000
   -0.45833333333333    0.08333333333333    0.16666666666667   12.00000000000000
   -0.41666666666667    0.08333333333333    0.16666666666667   12.00000000000000
   -0.37500000000000    0.08333333333333    0.16666666666667   12.00000000000000
   -0.33333333333333    0.08333333333333    0.16666666666667   12.00000000000000
   -0.29166666666667    0.08333333333333    0.16666666666667   12.00000000000000
   -0.25000000000000    0.08333333333333    0.16666666666667   12.00000000000000
   -0.20833333333333    0.08333333333333    0.16666666666667   12.00000000000000
    0.12500000000000    0.12500000000000    0.16666666666667   12.00000000000000
    0.16666666666667    0.12500000000000    0.16666666666667   12.00000000000000
    0.20833333333333    0.12500000000000    0.16666666666667   12.00000000000000
    0.25000000000000    0.12500000000000    0.16666666666667   12.00000000000000
    0.29166666666667    0.12500000000000    0.16666666666667   12.00000000000000
    0.33333333333333    0.12500000000000    0.16666666666667   12.00000000000000
    0.37500000000000    0.12500000000000    0.16666666666667   12.00000000000000
    0.41666666666667    0.12500000000000    0.16666666666667   12.00000000000000
    0.45833333333333    0.12500000000000    0.16666666666667   12.00000000000000
    0.50000000000000    0.12500000000000    0.16666666666667   12.00000000000000
   -0.45833333333333    0.12500000000000    0.16666666666667   12.00000000000000
   -0.41666666666667    0.12500000000000    0.16666666666667   12.00000000000000
   -0.37500000000000    0.12500000000000    0.16666666666667   12.00000000000000
   -0.33333333333333    0.12500000000000    0.16666666666667   12.00000000000000
   -0.29166666666667    0.12500000000000    0.16666666666667   12.00000000000000
    0.16666666666667    0.16666666666667    0.16666666666667   12.00000000000000
    0.20833333333333    0.16666666666667    0.16666666666667   12.00000000000000
    0.25000000000000    0.16666666666667    0.16666666666667   12.00000000000000
    0.29166666666667    0.16666666666667    0.16666666666667   12.00000000000000
    0.33333333333333    0.16666666666667    0.16666666666667   12.00000000000000
    0.37500000000000    0.16666666666667    0.16666666666667   12.00000000000000
    0.41666666666667    0.16666666666667    0.16666666666667   12.00000000000000
    0.45833333333333    0.16666666666667    0.16666666666667   12.00000000000000