Te3
1.0
        4.5123744011         0.0000000000         0.0000000000
       -2.2561872005         3.9078308627         0.0000000000
        0.0000000000         0.0000000000         5.9598989487
   Te
    3
Direct
     0.268949986         0.000000000         0.333333343
     0.000000000         0.268949986         0.666666687
     0.731050014         0.731050014         0.000000000
