SYSTEM   =   SiO2
ENCUT    =   500 eV
PREC     =   N
LREAL    =   FALSE
GGA      =   PE
#NCORE  =  26

ISMEAR   =   0
SIGMA    =   0.05
EDIFF    =   1.e-8

#ALGO = Exact
#NELM = 1
NBANDS = 1024
LOPTICS = T
LVEL = T
