Si O2
1.0
        4.9134368896         0.0000000000         0.0000000000
       -2.4567184448         4.2551611663         0.0000000000
        0.0000000000         0.0000000000         5.4051179886
   Si    O
    3    6
Direct
     0.469999999         0.000000000         0.666666687
     0.000000000         0.469999999         0.333333343
     0.529999971         0.529999971         0.000000000
     0.414600015         0.267800003         0.785430014
     0.732200027         0.146800011         0.452096671
     0.853199959         0.585399985         0.118763350
     0.267800003         0.414600015         0.214569986
     0.146800011         0.732200027         0.547903299
     0.585399985         0.853199959         0.881236672
